data/lp_files/q3/40_9.lp
\ Model foo
\ LP format - for model browsing. Use MPS format to capture full model detail.
Minimize
  z
Subject To
 allocateEach[1]: x[1,1] + x[2,1] = 1
 allocateEach[2]: x[1,2] + x[2,2] = 1
 allocateEach[3]: x[1,3] + x[2,3] = 1
 allocateEach[4]: x[1,4] + x[2,4] = 1
 allocateEach[5]: x[1,5] + x[2,5] = 1
 allocateEach[6]: x[1,6] + x[2,6] = 1
 allocateEach[7]: x[1,7] + x[2,7] = 1
 allocateEach[8]: x[1,8] + x[2,8] = 1
 allocateEach[9]: x[1,9] + x[2,9] = 1
 allocateEach[10]: x[1,10] + x[2,10] = 1
 allocateEach[11]: x[1,11] + x[2,11] = 1
 allocateEach[12]: x[1,12] + x[2,12] = 1
 allocateEach[13]: x[1,13] + x[2,13] = 1
 allocateEach[14]: x[1,14] + x[2,14] = 1
 allocateEach[15]: x[1,15] + x[2,15] = 1
 allocateEach[16]: x[1,16] + x[2,16] = 1
 allocateEach[17]: x[1,17] + x[2,17] = 1
 allocateEach[18]: x[1,18] + x[2,18] = 1
 allocateEach[19]: x[1,19] + x[2,19] = 1
 allocateEach[20]: x[1,20] + x[2,20] = 1
 allocateAllCash: cashProportion[1] + cashProportion[2] = 1
 findWorstP[1,2]: z + 0.0795146426214388 cashProportion[1]
   - 0.0795146426214388 cashProportion[2] + 0.0198627577268354 x[1,1]
   + 0.00312492545502254 x[1,2] + 0.0284185332729022 x[1,3]
   + 0.0309073415869532 x[1,4] + 0.061623848031615 x[1,5]
   + 0.0238543927864316 x[1,6] + 0.0420711974110032 x[1,7]
   + 0.011442157073225 x[1,8] + 0.0741712586372781 x[1,9]
   + 0.0530203636999753 x[1,10] + 0.0486629612843205 x[1,11]
   + 0.0723106159999364 x[1,12] + 0.0681758545836216 x[1,13]
   + 0.0650906864499098 x[1,14] + 0.00278301249175036 x[1,15]
   + 0.0529567519858782 x[1,16] + 0.0451881714017636 x[1,17]
   + 0.0738054912812194 x[1,18] + 0.0743938996366181 x[1,19]
   + 0.0686211365823016 x[1,20] - 0.0198627577268354 x[2,1]
   - 0.00312492545502254 x[2,2] - 0.0284185332729022 x[2,3]
   - 0.0309073415869532 x[2,4] - 0.061623848031615 x[2,5]
   - 0.0238543927864316 x[2,6] - 0.0420711974110032 x[2,7]
   - 0.011442157073225 x[2,8] - 0.0741712586372781 x[2,9]
   - 0.0530203636999753 x[2,10] - 0.0486629612843205 x[2,11]
   - 0.0723106159999364 x[2,12] - 0.0681758545836216 x[2,13]
   - 0.0650906864499098 x[2,14] - 0.00278301249175036 x[2,15]
   - 0.0529567519858782 x[2,16] - 0.0451881714017636 x[2,17]
   - 0.0738054912812194 x[2,18] - 0.0743938996366181 x[2,19]
   - 0.0686211365823016 x[2,20] >= 0
 findWorstP[2,1]: z - 0.096147374695934 cashProportion[1]
   + 0.096147374695934 cashProportion[2] - 0.00729758573942139 x[1,1]
   - 0.0191621717768996 x[1,2] - 0.0923207091830358 x[1,3]
   - 0.0183449190919842 x[1,4] - 0.0701395098406838 x[1,5]
   - 0.0612362629438403 x[1,6] - 0.0358822002365225 x[1,7]
   - 0.0617843029796072 x[1,8] - 0.0548424625265607 x[1,9]
   - 0.0790523714749969 x[1,10] - 0.0461026661667003 x[1,11]
   - 0.071600949936062 x[1,12] - 0.0421221648542887 x[1,13]
   - 0.0553039699251012 x[1,14] - 0.0621400482659821 x[1,15]
   - 0.00142298114549982 x[1,16] - 0.0184987548914977 x[1,17]
   - 0.0127010681973329 x[1,18] - 0.0474775736248522 x[1,19]
   - 0.0464199525031969 x[1,20] + 0.00729758573942139 x[2,1]
   + 0.0191621717768996 x[2,2] + 0.0923207091830358 x[2,3]
   + 0.0183449190919842 x[2,4] + 0.0701395098406838 x[2,5]
   + 0.0612362629438403 x[2,6] + 0.0358822002365225 x[2,7]
   + 0.0617843029796072 x[2,8] + 0.0548424625265607 x[2,9]
   + 0.0790523714749969 x[2,10] + 0.0461026661667003 x[2,11]
   + 0.071600949936062 x[2,12] + 0.0421221648542887 x[2,13]
   + 0.0553039699251012 x[2,14] + 0.0621400482659821 x[2,15]
   + 0.00142298114549982 x[2,16] + 0.0184987548914977 x[2,17]
   + 0.0127010681973329 x[2,18] + 0.0474775736248522 x[2,19]
   + 0.0464199525031969 x[2,20] >= 0
Bounds
 z <= 1
 -infinity <= cashProportion[1] <= 1
 -infinity <= cashProportion[2] <= 1
Binaries
 x[1,1] x[1,2] x[1,3] x[1,4] x[1,5] x[1,6] x[1,7] x[1,8] x[1,9] x[1,10]
 x[1,11] x[1,12] x[1,13] x[1,14] x[1,15] x[1,16] x[1,17] x[1,18] x[1,19]
 x[1,20] x[2,1] x[2,2] x[2,3] x[2,4] x[2,5] x[2,6] x[2,7] x[2,8] x[2,9]
 x[2,10] x[2,11] x[2,12] x[2,13] x[2,14] x[2,15] x[2,16] x[2,17] x[2,18]
 x[2,19] x[2,20]
End
