data/mps_files/pEFS/40_9.mps
NAME foo
ROWS
 N  OBJ
 E  allocateEach[1]
 E  allocateEach[2]
 E  allocateEach[3]
 E  allocateEach[4]
 E  allocateEach[5]
 E  allocateEach[6]
 E  allocateEach[7]
 E  allocateEach[8]
 E  allocateEach[9]
 E  allocateEach[10]
 E  allocateEach[11]
 E  allocateEach[12]
 E  allocateEach[13]
 E  allocateEach[14]
 E  allocateEach[15]
 E  allocateEach[16]
 E  allocateEach[17]
 E  allocateEach[18]
 E  allocateEach[19]
 E  allocateEach[20]
 E  allocateAllCash
 G  findWorstP[1,2]
 G  findWorstP[2,1]
COLUMNS
    z         OBJ       1
    z         findWorstP[1,2]  1
    z         findWorstP[2,1]  1
    cashProportion[1]  allocateAllCash  1
    cashProportion[1]  findWorstP[1,2]  7.9514642621438758e-02
    cashProportion[1]  findWorstP[2,1]  -9.6147374695933985e-02
    cashProportion[2]  allocateAllCash  1
    cashProportion[2]  findWorstP[1,2]  -7.9514642621438758e-02
    cashProportion[2]  findWorstP[2,1]  9.6147374695933985e-02
    MARKER    'MARKER'                 'INTORG'
    x[1,1]    allocateEach[1]  1
    x[1,1]    findWorstP[1,2]  0.0198627577268354
    x[1,1]    findWorstP[2,1]  -7.2975857394213866e-03
    x[1,2]    allocateEach[2]  1
    x[1,2]    findWorstP[1,2]  3.1249254550225428e-03
    x[1,2]    findWorstP[2,1]  -1.9162171776899637e-02
    x[1,3]    allocateEach[3]  1
    x[1,3]    findWorstP[1,2]  2.8418533272902207e-02
    x[1,3]    findWorstP[2,1]  -0.0923207091830358
    x[1,4]    allocateEach[4]  1
    x[1,4]    findWorstP[1,2]  3.0907341586953237e-02
    x[1,4]    findWorstP[2,1]  -0.0183449190919842
    x[1,5]    allocateEach[5]  1
    x[1,5]    findWorstP[1,2]  6.1623848031615032e-02
    x[1,5]    findWorstP[2,1]  -7.0139509840683831e-02
    x[1,6]    allocateEach[6]  1
    x[1,6]    findWorstP[1,2]  2.3854392786431623e-02
    x[1,6]    findWorstP[2,1]  -6.1236262943840339e-02
    x[1,7]    allocateEach[7]  1
    x[1,7]    findWorstP[1,2]  4.2071197411003243e-02
    x[1,7]    findWorstP[2,1]  -3.5882200236522548e-02
    x[1,8]    allocateEach[8]  1
    x[1,8]    findWorstP[1,2]  1.1442157073225035e-02
    x[1,8]    findWorstP[2,1]  -6.1784302979607159e-02
    x[1,9]    allocateEach[9]  1
    x[1,9]    findWorstP[1,2]  7.4171258637278054e-02
    x[1,9]    findWorstP[2,1]  -5.4842462526560734e-02
    x[1,10]   allocateEach[10]  1
    x[1,10]   findWorstP[1,2]  5.3020363699975349e-02
    x[1,10]   findWorstP[2,1]  -0.0790523714749969
    x[1,11]   allocateEach[11]  1
    x[1,11]   findWorstP[1,2]  4.8662961284320509e-02
    x[1,11]   findWorstP[2,1]  -4.6102666166700328e-02
    x[1,12]   allocateEach[12]  1
    x[1,12]   findWorstP[1,2]  7.2310615999936392e-02
    x[1,12]   findWorstP[2,1]  -7.1600949936062017e-02
    x[1,13]   allocateEach[13]  1
    x[1,13]   findWorstP[1,2]  6.8175854583621590e-02
    x[1,13]   findWorstP[2,1]  -4.2122164854288664e-02
    x[1,14]   allocateEach[14]  1
    x[1,14]   findWorstP[1,2]  6.5090686449909757e-02
    x[1,14]   findWorstP[2,1]  -5.5303969925101219e-02
    x[1,15]   allocateEach[15]  1
    x[1,15]   findWorstP[1,2]  2.7830124917503562e-03
    x[1,15]   findWorstP[2,1]  -6.2140048265982115e-02
    x[1,16]   allocateEach[16]  1
    x[1,16]   findWorstP[1,2]  5.2956751985878209e-02
    x[1,16]   findWorstP[2,1]  -1.4229811454998227e-03
    x[1,17]   allocateEach[17]  1
    x[1,17]   findWorstP[1,2]  4.5188171401763642e-02
    x[1,17]   findWorstP[2,1]  -1.8498754891497691e-02
    x[1,18]   allocateEach[18]  1
    x[1,18]   findWorstP[1,2]  7.3805491281219437e-02
    x[1,18]   findWorstP[2,1]  -1.2701068197332875e-02
    x[1,19]   allocateEach[19]  1
    x[1,19]   findWorstP[1,2]  7.4393899636618091e-02
    x[1,19]   findWorstP[2,1]  -4.7477573624852193e-02
    x[1,20]   allocateEach[20]  1
    x[1,20]   findWorstP[1,2]  6.8621136582301637e-02
    x[1,20]   findWorstP[2,1]  -4.6419952503196915e-02
    x[2,1]    allocateEach[1]  1
    x[2,1]    findWorstP[1,2]  -0.0198627577268354
    x[2,1]    findWorstP[2,1]  7.2975857394213866e-03
    x[2,2]    allocateEach[2]  1
    x[2,2]    findWorstP[1,2]  -3.1249254550225428e-03
    x[2,2]    findWorstP[2,1]  1.9162171776899637e-02
    x[2,3]    allocateEach[3]  1
    x[2,3]    findWorstP[1,2]  -2.8418533272902207e-02
    x[2,3]    findWorstP[2,1]  0.0923207091830358
    x[2,4]    allocateEach[4]  1
    x[2,4]    findWorstP[1,2]  -3.0907341586953237e-02
    x[2,4]    findWorstP[2,1]  0.0183449190919842
    x[2,5]    allocateEach[5]  1
    x[2,5]    findWorstP[1,2]  -6.1623848031615032e-02
    x[2,5]    findWorstP[2,1]  7.0139509840683831e-02
    x[2,6]    allocateEach[6]  1
    x[2,6]    findWorstP[1,2]  -2.3854392786431623e-02
    x[2,6]    findWorstP[2,1]  6.1236262943840339e-02
    x[2,7]    allocateEach[7]  1
    x[2,7]    findWorstP[1,2]  -4.2071197411003243e-02
    x[2,7]    findWorstP[2,1]  3.5882200236522548e-02
    x[2,8]    allocateEach[8]  1
    x[2,8]    findWorstP[1,2]  -1.1442157073225035e-02
    x[2,8]    findWorstP[2,1]  6.1784302979607159e-02
    x[2,9]    allocateEach[9]  1
    x[2,9]    findWorstP[1,2]  -7.4171258637278054e-02
    x[2,9]    findWorstP[2,1]  5.4842462526560734e-02
    x[2,10]   allocateEach[10]  1
    x[2,10]   findWorstP[1,2]  -5.3020363699975349e-02
    x[2,10]   findWorstP[2,1]  0.0790523714749969
    x[2,11]   allocateEach[11]  1
    x[2,11]   findWorstP[1,2]  -4.8662961284320509e-02
    x[2,11]   findWorstP[2,1]  4.6102666166700328e-02
    x[2,12]   allocateEach[12]  1
    x[2,12]   findWorstP[1,2]  -7.2310615999936392e-02
    x[2,12]   findWorstP[2,1]  7.1600949936062017e-02
    x[2,13]   allocateEach[13]  1
    x[2,13]   findWorstP[1,2]  -6.8175854583621590e-02
    x[2,13]   findWorstP[2,1]  4.2122164854288664e-02
    x[2,14]   allocateEach[14]  1
    x[2,14]   findWorstP[1,2]  -6.5090686449909757e-02
    x[2,14]   findWorstP[2,1]  5.5303969925101219e-02
    x[2,15]   allocateEach[15]  1
    x[2,15]   findWorstP[1,2]  -2.7830124917503562e-03
    x[2,15]   findWorstP[2,1]  6.2140048265982115e-02
    x[2,16]   allocateEach[16]  1
    x[2,16]   findWorstP[1,2]  -5.2956751985878209e-02
    x[2,16]   findWorstP[2,1]  1.4229811454998227e-03
    x[2,17]   allocateEach[17]  1
    x[2,17]   findWorstP[1,2]  -4.5188171401763642e-02
    x[2,17]   findWorstP[2,1]  1.8498754891497691e-02
    x[2,18]   allocateEach[18]  1
    x[2,18]   findWorstP[1,2]  -7.3805491281219437e-02
    x[2,18]   findWorstP[2,1]  1.2701068197332875e-02
    x[2,19]   allocateEach[19]  1
    x[2,19]   findWorstP[1,2]  -7.4393899636618091e-02
    x[2,19]   findWorstP[2,1]  4.7477573624852193e-02
    x[2,20]   allocateEach[20]  1
    x[2,20]   findWorstP[1,2]  -6.8621136582301637e-02
    x[2,20]   findWorstP[2,1]  4.6419952503196915e-02
    MARKER    'MARKER'                 'INTEND'
RHS
    RHS1      allocateEach[1]  1
    RHS1      allocateEach[2]  1
    RHS1      allocateEach[3]  1
    RHS1      allocateEach[4]  1
    RHS1      allocateEach[5]  1
    RHS1      allocateEach[6]  1
    RHS1      allocateEach[7]  1
    RHS1      allocateEach[8]  1
    RHS1      allocateEach[9]  1
    RHS1      allocateEach[10]  1
    RHS1      allocateEach[11]  1
    RHS1      allocateEach[12]  1
    RHS1      allocateEach[13]  1
    RHS1      allocateEach[14]  1
    RHS1      allocateEach[15]  1
    RHS1      allocateEach[16]  1
    RHS1      allocateEach[17]  1
    RHS1      allocateEach[18]  1
    RHS1      allocateEach[19]  1
    RHS1      allocateEach[20]  1
    RHS1      allocateAllCash  1
BOUNDS
 UP BND1      z         1
 MI BND1      cashProportion[1]
 UP BND1      cashProportion[1]  1
 MI BND1      cashProportion[2]
 UP BND1      cashProportion[2]  1
 BV BND1      x[1,1]  
 BV BND1      x[1,2]  
 BV BND1      x[1,3]  
 BV BND1      x[1,4]  
 BV BND1      x[1,5]  
 BV BND1      x[1,6]  
 BV BND1      x[1,7]  
 BV BND1      x[1,8]  
 BV BND1      x[1,9]  
 BV BND1      x[1,10] 
 BV BND1      x[1,11] 
 BV BND1      x[1,12] 
 BV BND1      x[1,13] 
 BV BND1      x[1,14] 
 BV BND1      x[1,15] 
 BV BND1      x[1,16] 
 BV BND1      x[1,17] 
 BV BND1      x[1,18] 
 BV BND1      x[1,19] 
 BV BND1      x[1,20] 
 BV BND1      x[2,1]  
 BV BND1      x[2,2]  
 BV BND1      x[2,3]  
 BV BND1      x[2,4]  
 BV BND1      x[2,5]  
 BV BND1      x[2,6]  
 BV BND1      x[2,7]  
 BV BND1      x[2,8]  
 BV BND1      x[2,9]  
 BV BND1      x[2,10] 
 BV BND1      x[2,11] 
 BV BND1      x[2,12] 
 BV BND1      x[2,13] 
 BV BND1      x[2,14] 
 BV BND1      x[2,15] 
 BV BND1      x[2,16] 
 BV BND1      x[2,17] 
 BV BND1      x[2,18] 
 BV BND1      x[2,19] 
 BV BND1      x[2,20] 
ENDATA
